14
    1  215  547  739 1008  668  458  112  108  310  155  668  351  458
  215    1  458  677 1050  701  547  241  322  485  340  701  462  458
  547  458    1  223  693  384  419  461  615  854  539  384  435  210
  739  677  223    1  528  310  472  640  790 1036  698  310  535  305
 1008 1050  693  528    1  350  557  897 1002 1230  891  350  668  594
  668  701  384  310  350    1  246  557  677  916  567    1  350  246
  458  547  419  472  557  246    1  351  446  677  334  246  112  210
  112  241  461  640  897  557  351    1  155  397  107  557  247  351
  108  322  615  790 1002  677  446  155    1  248  112  677  334  494
  310  485  854 1036 1230  916  677  397  248    1  351  916  567  741
  155  340  539  698  891  567  334  107  112  351    1  567  223  396
  668  701  384  310  350    1  246  557  677  916  567    1  350  246
  351  462  435  535  668  350  112  247  334  567  223  350    1  238
  458  458  210  305  594  246  210  351  494  741  396  246  238    1